letting n_hints be 31

letting grid be [
[ 1, 2, 2,  3, 3, 3,  4, 5, 5],
[ 1, 6, 6,  7, 7, 4,  4, 5, 5],
[ 1, 8, 9, 10,11,11, 12,12,13],

[14,14, 9, 15,15,16, 16,17,13],
[14,18, 9, 15,15,16, 16,17,17],
[19,18,18, 20,20,20, 21,21,22],

[19,19,23, 23,24,24, 21,22,22],
[25,25,26, 26,27,28, 29,29,30],
[25,31,31, 26,27,28, 28,29,30]
]

letting hints be [13,9,15,13,25, 13,8,1,17,2, 11,9,10,17,28, 16,10,13,24,10, 23,17,5,6,13, 23,10,18,10,9, 7]
